PROBLEM NAME: eil51_n10
KNAPSACK DATA TYPE: multiple strongly correlated
DIMENSION: 10
NUMBER OF ITEMS: 90
CAPACITY OF KNAPSACK: 24964
MIN SPEED: 0.1
MAX SPEED: 1
RENTING RATIO: 74.48
EDGE_WEIGHT_TYPE: CEIL_2D
NODE_COORD_SECTION	(INDEX, X, Y):
1	37	52
2	21	47
3	42	41
4	31	32
5	12	42
6	17	33
7	43	67
8	5	64
9	25	55
10	48	28
ITEMS SECTION	(INDEX, PROFIT, WEIGHT, ASSIGNED NODE NUMBER):
1	1179	979	7
2	1165	965	7
3	1141	941	7
4	1139	939	7
5	1128	928	7
6	1121	921	7
7	1115	915	7
8	1104	904	7
9	1092	792	7
10	1086	786	7
11	1068	868	9
12	1061	861	9
13	1050	850	9
14	1048	848	9
15	1039	839	9
16	1029	829	9
17	1027	827	9
18	1014	714	9
19	1014	814	9
20	1013	813	9
21	990	790	2
22	989	789	2
23	988	788	2
24	987	787	2
25	973	773	2
26	953	753	2
27	952	752	2
28	948	748	2
29	910	710	2
30	882	682	2
31	852	652	8
32	847	647	8
33	823	623	8
34	816	516	8
35	805	605	8
36	785	585	8
37	775	575	8
38	768	568	8
39	765	565	8
40	760	560	8
41	759	559	5
42	745	545	5
43	744	544	5
44	742	542	5
45	737	537	5
46	726	526	5
47	688	488	5
48	677	477	5
49	672	472	5
50	663	463	5
51	625	425	6
52	600	300	6
53	593	393	6
54	586	386	6
55	576	376	6
56	574	374	6
57	574	374	6
58	573	373	6
59	564	264	6
60	564	364	6
61	563	363	4
62	563	363	4
63	558	358	4
64	555	355	4
65	553	353	4
66	534	234	4
67	520	320	4
68	514	314	4
69	513	313	4
70	492	292	4
71	480	180	10
72	456	156	10
73	449	249	10
74	445	245	10
75	442	242	10
76	429	229	10
77	425	225	10
78	417	217	10
79	405	205	10
80	355	155	10
81	312	112	3
82	311	111	3
83	311	111	3
84	306	106	3
85	300	100	3
86	283	83	3
87	270	70	3
88	250	50	3
89	249	49	3
90	226	26	3
